n=8;
hearts=6;
clubs=4;
spades=42;
diamonds=51;
blocked=9;
m=array2d(1..n, 1..n,[
	_,_,_,_,_,5,_,_,
	_,_,_,_,_,5,_,_,
	2,_,5,_,_,5,_,_,
	_,4,_,_,_,_,_,_,
	_,5,_,_,5,_,_,_,
	_,_,_,2,_,5,3,_,
	_,5,_,_,_,_,_,_,
	_,5,_,_,_,_,_,_
]);
